0 0 0 0
0 1 1 0
0 2 0 0
0 3 1 0
0 4 2 2
0 5 0 1
0 6 0 6
0 7 0 7
0 8 2 8
0 9 1 1
0 10 1 1
0 11 1 2
0 12 0 5
0 13 0 9
0 14 1 9
0 15 0 8
0 16 1 6
0 17 0 14
0 18 0 13
0 19 0 14
0 20 0 14
0 21 0 16
0 22 0 14
0 23 2 9
0 24 0 17
0 25 1 7
0 26 0 17
0 27 0 17
0 28 1 18
0 29 1 19
0 30 0 18
0 31 0 23
